c preprocessed version of BiggsSmithGraph, 102 vertices, 153 edges
p td 102 153
0 1
0 4
0 10
1 14
1 20
2 5
2 94
3 4
5 6
5 42
6 7
6 78
7 8
7 30
8 9
8 23
9 10
9 62
10 11
11 12
11 84
12 13
12 77
13 15
13 44
14 25
14 65
15 16
16 17
16 39
17 18
17 49
18 19
18 83
19 20
19 70
20 21
21 22
21 52
22 23
22 93
23 24
24 26
24 82
25 15
25 36
26 27
26 88
27 28
27 50
28 29
28 37
29 30
29 59
30 31
31 32
31 53
32 4
32 33
33 34
33 76
34 35
35 37
35 99
36 34
36 47
37 38
38 39
38 79
39 40
40 41
40 67
41 42
41 57
42 43
43 44
43 63
44 45
45 46
46 48
46 86
47 51
47 58
48 49
48 56
49 50
50 51
51 52
52 53
53 54
54 55
55 56
55 71
56 57
57 59
58 69
58 90
59 60
60 61
60 101
61 62
61 87
62 63
63 64
64 65
64 92
65 66
66 67
66 100
67 68
68 70
68 95
69 45
69 80
70 71
71 72
72 3
72 73
73 74
73 85
74 75
74 97
75 76
76 77
77 78
78 79
79 81
80 75
80 91
81 82
81 96
82 83
83 84
84 85
85 86
86 87
87 88
88 89
89 90
89 98
90 92
91 2
91 54
92 93
93 94
94 95
95 96
96 97
97 98
98 99
99 100
100 101
101 3
